c b=8,c=2041
p cnf 27 350
1 2 3 4 5 8 -16 0
1 2 3 4 5 6 7 8 -19 0
2 3 4 5 6 7 8 -20 0
1 3 4 5 6 7 8 -21 0
1 2 4 5 6 7 8 -22 0
1 2 3 5 6 7 8 -23 0
1 2 3 4 6 7 8 -24 0
1 2 3 4 5 7 8 -25 0
1 2 3 4 5 6 8 -26 0
1 2 3 4 5 -8 16 0
1 3 4 6 7 -8 19 0
1 -8 20 0
1 2 -8 21 0
1 2 3 -8 22 0
1 2 3 4 -8 23 0
1 2 3 4 5 -8 24 0
1 2 3 4 5 6 -8 25 0
1 2 3 4 5 6 7 -8 26 0
1 2 3 4 7 -15 0
1 2 3 4 5 6 7 -18 0
1 2 3 4 5 6 7 -27 0
-7 8 19 0
8 -27 0
-7 -8 -19 0
-7 -8 27 0
1 2 3 4 -7 15 0
2 3 5 6 -7 18 0
1 -7 20 0
1 2 -7 21 0
1 2 3 -7 22 0
1 2 3 4 -7 23 0
1 2 3 4 5 -7 24 0
1 2 3 4 5 6 -7 25 0
1 2 3 4 5 6 -7 -26 0
1 2 3 6 -14 0
1 2 3 4 5 6 -17 0
-6 8 19 0
-6 -8 -19 0
-6 -8 27 0
-6 7 18 0
-6 7 -26 0
-6 -7 -18 0
-6 -7 26 0
1 2 3 -6 14 0
1 2 4 5 -6 17 0
1 -6 20 0
1 2 -6 21 0
1 2 3 -6 22 0
1 2 3 4 -6 23 0
1 2 3 4 5 -6 24 0
1 2 3 4 5 -6 -25 0
1 2 5 -13 0
1 3 4 -5 8 16 0
-5 6 8 17 0
-5 7 8 18 0
1 3 4 -5 -8 -16 0
1 3 4 6 -8 -17 0
1 3 4 6 7 -8 -18 0
-5 -8 27 0
1 3 4 -5 6 7 19 0
-5 7 -26 0
-5 -7 8 -18 0
-5 8 19 0
1 3 4 6 -7 -8 18 0
-5 -7 26 0
-5 6 -25 0
-5 -6 8 -17 0
1 4 -6 -8 17 0
-5 -6 25 0
1 2 -5 13 0
1 -5 20 0
1 2 -5 21 0
1 2 3 -5 22 0
1 2 3 4 -5 23 0
1 2 3 4 -5 -24 0
1 4 -12 0
-4 5 7 8 16 0
-4 6 7 8 17 0
2 3 -4 5 6 8 18 0
-4 5 7 -8 -16 0
5 6 -8 -17 0
5 6 7 -8 -18 0
-4 -8 27 0
2 3 -4 7 15 0
-4 5 6 7 19 0
-4 7 -26 0
2 3 5 -7 8 -16 0
-4 8 19 0
2 3 5 -7 -8 16 0
2 3 -4 -7 -15 0
2 3 5 6 -7 -17 0
-4 -7 26 0
-4 6 -25 0
-4 -6 7 8 -17 0
5 -6 -8 17 0
2 5 -6 -7 17 0
-4 -6 25 0
-4 5 -24 0
-4 -5 7 8 -16 0
-4 -5 7 -8 16 0
-4 -5 -8 -19 0
-4 -5 6 7 17 0
-4 -5 7 18 0
3 -5 -7 8 16 0
3 -5 -7 -8 -16 0
3 6 -7 -8 -17 0
3 -4 -5 6 -8 18 0
-4 -5 -6 7 -17 0
3 -6 -7 -8 17 0
-4 -5 24 0
1 -4 12 0
1 -4 20 0
1 2 -4 21 0
1 2 3 -4 22 0
1 2 3 -4 -23 0
3 -11 0
-3 5 6 7 8 16 0
1 2 -3 4 5 7 8 17 0
-3 4 5 6 8 18 0
-3 5 6 7 -8 -16 0
-3 -8 27 0
-3 4 6 7 15 0
-3 5 6 7 19 0
-3 7 -26 0
4 5 -7 8 -16 0
-3 8 19 0
4 5 -7 -8 16 0
-3 4 6 -7 -15 0
4 5 6 -7 -17 0
4 5 6 -7 18 0
-3 -7 26 0
1 2 -3 6 14 0
-3 6 -25 0
1 2 4 5 -6 8 -16 0
1 2 4 5 -6 -8 16 0
1 2 4 -6 7 -15 0
1 2 4 -6 -7 15 0
1 2 -3 -6 -14 0
-3 -6 25 0
-3 5 -24 0
-3 -5 6 7 8 -16 0
-3 -5 6 7 -8 16 0
-3 -5 -8 -19 0
-3 -5 6 7 17 0
-3 -5 7 18 0
4 -5 -7 8 16 0
4 -5 -7 -8 -16 0
4 6 -7 -8 -17 0
-3 4 -5 6 -8 18 0
1 4 -5 -6 8 16 0
1 4 -5 -6 -8 -16 0
-3 -5 24 0
-3 4 -23 0
-3 -4 5 6 8 16 0
-3 -4 6 8 17 0
-3 -4 7 8 18 0
-3 -4 5 6 -8 -16 0
-3 -4 6 7 -15 0
-3 -4 -7 8 -18 0
1 5 6 -7 -8 18 0
-3 -4 6 -7 15 0
2 -4 -6 7 15 0
2 5 -6 -7 8 -16 0
2 5 -6 -7 -8 16 0
2 -4 -6 -7 -15 0
-3 -4 -5 6 8 -16 0
-3 -4 -5 6 -8 16 0
-3 -4 -5 -7 -18 0
-3 -4 -5 6 17 0
2 -5 -6 -7 8 16 0
2 -5 -6 -7 -8 -16 0
-3 -4 -5 -7 -8 17 0
-3 -4 23 0
-3 11 0
1 -3 20 0
1 2 -3 21 0
1 2 -3 -22 0
2 -10 0
1 -2 3 4 6 7 8 16 0
-2 3 4 5 7 8 17 0
-2 4 5 6 8 18 0
1 -2 3 4 6 7 -8 -16 0
-2 -8 27 0
-2 4 5 6 7 15 0
1 -2 3 4 6 7 19 0
-2 7 -26 0
-2 8 19 0
-2 4 5 6 -7 -15 0
-2 -7 26 0
-2 3 5 6 14 0
-2 6 -25 0
3 4 5 -6 8 -16 0
3 4 5 -6 -8 16 0
3 4 -6 7 -15 0
3 4 -6 -7 15 0
-2 3 5 -6 -14 0
3 4 5 -6 17 0
-2 -6 25 0
1 -2 5 13 0
-2 5 -24 0
1 3 4 -5 7 -15 0
1 -2 3 6 -7 -8 18 0
1 3 4 -5 -7 15 0
1 3 -5 6 -14 0
1 3 -5 -6 14 0
1 -2 -5 -13 0
-2 -5 24 0
-2 4 -23 0
-2 -4 5 6 8 16 0
-2 -4 6 8 17 0
-2 -4 7 8 18 0
-2 -4 5 6 -8 -16 0
-2 -4 5 6 7 -15 0
-2 5 6 7 19 0
-2 -4 -7 8 -18 0
-2 -4 5 6 -7 15 0
3 -4 -6 7 15 0
3 5 -6 -7 8 -16 0
3 5 -6 -7 -8 16 0
3 -4 -6 -7 -15 0
3 5 -6 -7 17 0
3 -4 -5 7 15 0
3 -4 -5 -7 -15 0
-2 -4 23 0
-2 3 -22 0
-2 -3 5 7 8 16 0
-2 -3 6 7 8 17 0
-2 -3 5 7 -8 -16 0
-2 -3 4 5 7 15 0
-2 -3 4 5 -7 -15 0
-2 -3 5 6 -14 0
-2 -3 -6 7 8 -17 0
4 5 -6 -7 17 0
-2 -3 5 -6 14 0
1 -3 -5 6 14 0
1 4 -5 -6 7 -15 0
1 4 -5 -6 -7 15 0
1 -3 -5 -6 -14 0
-2 -3 -4 5 8 16 0
-2 -3 -4 5 -8 -16 0
-2 -3 -4 5 7 -15 0
-2 -3 -4 5 -7 15 0
-2 -3 -4 -6 8 -17 0
1 -4 -5 -6 7 15 0
-2 -3 -4 -6 -7 8 16 0
-2 -3 -4 -6 -7 -8 -16 0
1 -4 -5 -6 -7 -15 0
-2 -3 22 0
-2 10 0
1 -2 20 0
1 -2 -21 0
1 -9 0
-1 2 3 4 6 7 8 16 0
-1 3 4 5 7 8 17 0
-1 2 3 5 6 8 18 0
-1 2 3 4 6 7 -8 -16 0
2 3 4 6 -8 -17 0
2 3 4 6 7 -8 -18 0
-1 -8 27 0
-1 2 3 5 6 7 15 0
-1 2 3 4 6 7 19 0
-1 7 -26 0
-1 8 19 0
-1 2 3 5 6 -7 -15 0
-1 -7 26 0
-1 3 4 5 6 14 0
-1 6 -25 0
-1 3 4 5 -6 -14 0
-1 -6 25 0
-1 2 4 5 13 0
-1 5 -24 0
2 3 4 -5 8 16 0
2 3 4 -5 -8 -16 0
2 3 4 -5 7 -15 0
2 3 4 6 -7 -8 18 0
2 3 4 -5 -7 15 0
2 3 -5 6 -14 0
2 4 -6 -8 17 0
2 3 -5 -6 14 0
-1 2 4 -5 -13 0
-1 -5 24 0
-1 4 12 0
-1 4 -23 0
-1 5 6 7 19 0
2 3 -4 6 -14 0
2 3 -4 -6 14 0
2 -4 5 -13 0
2 -4 -5 13 0
-1 -4 -12 0
-1 -4 23 0
-1 3 -22 0
-1 -3 5 7 8 16 0
-1 -3 6 7 8 17 0
-1 4 5 6 8 18 0
-1 -3 5 7 -8 -16 0
-1 -3 4 5 7 15 0
-1 -3 4 5 -7 -15 0
-1 -3 4 5 6 -14 0
-1 -3 -6 7 8 -17 0
-1 -3 4 5 -6 14 0
2 -3 -5 6 14 0
2 4 -5 -6 8 16 0
2 4 -5 -6 -8 -16 0
2 4 -5 -6 7 -15 0
2 4 -5 -6 -7 15 0
2 -3 -5 -6 -14 0
2 5 6 -7 -8 18 0
2 -3 -4 6 14 0
2 -3 -4 -6 -14 0
-1 -3 22 0
-1 2 -21 0
-1 -2 5 6 7 8 16 0
-1 -2 5 6 7 -8 -16 0
-1 -2 4 6 7 15 0
-1 -2 4 6 -7 -15 0
-1 -2 3 4 6 14 0
-1 -2 3 4 -6 -14 0
-1 -2 4 5 -13 0
-1 -2 -5 6 7 8 -16 0
-1 -2 -5 6 7 -8 16 0
-1 -2 -5 -8 -19 0
-1 -2 -5 6 7 17 0
-1 -2 -5 7 18 0
-1 -2 3 -5 6 -8 18 0
3 4 -5 -6 8 16 0
3 4 -5 -6 -8 -16 0
3 4 -6 -8 17 0
-1 -2 4 -5 13 0
-2 3 -4 6 -7 -8 18 0
-2 -4 5 13 0
3 -4 -5 6 -14 0
3 -4 -5 -6 14 0
-2 -4 -5 -13 0
-1 -2 -3 4 7 15 0
-1 -2 -3 4 -7 -15 0
-1 -2 -3 4 6 -14 0
-1 -2 -3 4 -6 14 0
-1 -2 -3 -5 7 8 -16 0
-1 -2 -3 -5 7 -8 16 0
-1 -2 4 -5 6 -8 18 0
-1 -2 -3 -5 -6 7 -17 0
4 -6 -7 -8 17 0
-3 5 6 -7 -8 18 0
-3 -4 -5 6 14 0
-1 -2 -3 -5 -6 7 15 0
-1 -2 -3 -5 -6 -7 -15 0
-3 -4 -5 -6 -14 0
-1 -2 21 0
-1 9 0
-1 -20 0
